MARKOV
227
 2 2 2 2 2 2 2 2 2 2 2 2 2 2 2 2 2 2 2 2 2 2 2 2 2 2 2 2 2 2 2 2 2 2 2 2 2 2 2 2 2 2 2 2 2 2 2 2 2 2 2 2 2 2 2 2 2 2 2 2 2 2 2 2 2 2 2 2 2 2 2 2 2 2 2 2 2 2 2 2 2 2 2 2 2 2 2 2 2 2 2 2 2 2 2 2 2 2 2 2 2 2 2 2 2 2 2 2 2 2 2 2 2 2 2 2 2 2 2 2 2 2 2 2 2 2 2 2 2 2 2 2 2 2 2 2 2 2 2 2 2 2 2 2 2 2 2 2 2 2 2 2 2 2 2 2 2 2 2 2 2 2 2 2 2 2 2 2 2 2 2 2 2 2 2 2 2 2 2 2 2 2 2 2 2 2 2 2 2 2 2 2 2 2 2 2 2 2 2 2 2 2 2 2 2 2 2 2 2 2 2 2 2 2 2 2 2 2 2 2 2 2 2 2 2 2 2
842
1	0 
1	1 
1	2 
1	3 
1	4 
1	5 
1	6 
1	7 
1	8 
1	9 
1	10 
1	11 
1	12 
1	13 
1	14 
1	15 
1	16 
1	17 
1	18 
1	19 
1	20 
1	21 
1	22 
1	23 
1	24 
1	25 
1	26 
1	27 
1	28 
1	29 
1	30 
1	31 
1	32 
1	33 
1	34 
1	35 
1	36 
1	37 
1	38 
1	39 
1	40 
1	41 
1	42 
1	43 
1	44 
1	45 
1	46 
1	47 
1	48 
1	49 
1	50 
1	51 
1	52 
1	53 
1	54 
1	55 
1	56 
1	57 
1	58 
1	59 
1	60 
1	61 
1	62 
1	63 
1	64 
1	65 
1	66 
1	67 
1	68 
1	69 
1	70 
1	71 
1	72 
1	73 
1	74 
1	75 
1	76 
1	77 
1	78 
1	79 
1	80 
1	81 
1	82 
1	83 
1	84 
1	85 
1	86 
1	87 
1	88 
1	89 
1	90 
1	91 
1	92 
1	93 
1	94 
1	95 
1	96 
1	97 
1	98 
1	99 
1	100 
1	101 
1	102 
1	103 
1	104 
1	105 
1	106 
1	107 
1	108 
1	109 
1	110 
1	111 
1	112 
1	113 
1	114 
1	115 
1	116 
1	117 
1	118 
1	119 
1	120 
1	121 
1	122 
1	123 
1	124 
1	125 
1	126 
1	127 
1	128 
1	129 
1	130 
1	131 
1	132 
1	133 
1	134 
1	135 
1	136 
1	137 
1	138 
1	139 
1	140 
1	141 
1	142 
1	143 
1	144 
1	145 
1	146 
1	147 
1	148 
1	149 
1	150 
1	151 
1	152 
1	153 
1	154 
1	155 
1	156 
1	157 
1	158 
1	159 
1	160 
1	161 
1	162 
1	163 
1	164 
1	165 
1	166 
1	167 
1	168 
1	169 
1	170 
1	171 
1	172 
1	173 
1	174 
1	175 
1	176 
1	177 
1	178 
1	179 
1	180 
1	181 
1	182 
1	183 
1	184 
1	185 
1	186 
1	187 
1	188 
1	189 
1	190 
1	191 
1	192 
1	193 
1	194 
1	195 
1	196 
1	197 
1	198 
1	199 
1	200 
1	201 
1	202 
1	203 
1	204 
1	205 
1	206 
1	207 
1	208 
1	209 
1	210 
1	211 
1	212 
1	213 
1	214 
1	215 
1	216 
1	217 
1	218 
1	219 
1	220 
1	221 
1	222 
1	223 
1	224 
1	225 
1	226 
2	1 2 
2	1 35 
2	1 36 
2	1 101 
2	1 207 
2	1 208 
2	2 36 
2	2 119 
2	2 122 
2	2 208 
2	3 5 
2	3 38 
2	3 170 
2	3 171 
2	3 172 
2	3 173 
2	4 5 
2	4 149 
2	4 150 
2	4 209 
2	4 211 
2	5 38 
2	5 150 
2	5 170 
2	5 211 
2	6 7 
2	6 8 
2	6 10 
2	6 48 
2	6 50 
2	6 51 
2	6 53 
2	7 8 
2	7 9 
2	7 53 
2	7 56 
2	7 99 
2	7 100 
2	8 9 
2	8 10 
2	8 11 
2	9 11 
2	9 12 
2	9 13 
2	9 73 
2	9 100 
2	10 11 
2	10 48 
2	11 12 
2	12 13 
2	12 15 
2	13 14 
2	13 73 
2	14 15 
2	14 72 
2	14 73 
2	14 89 
2	15 88 
2	15 89 
2	16 17 
2	16 18 
2	16 161 
2	16 182 
2	17 18 
2	17 19 
2	17 20 
2	18 19 
2	18 182 
2	18 184 
2	19 20 
2	19 22 
2	19 183 
2	19 184 
2	20 21 
2	20 22 
2	20 103 
2	21 22 
2	21 102 
2	21 103 
2	21 185 
2	21 205 
2	22 183 
2	22 185 
2	23 24 
2	23 26 
2	23 56 
2	23 96 
2	23 99 
2	23 180 
2	24 25 
2	24 26 
2	24 27 
2	24 96 
2	24 97 
2	25 26 
2	25 27 
2	25 166 
2	25 181 
2	26 179 
2	26 180 
2	26 181 
2	27 97 
2	27 98 
2	27 164 
2	27 166 
2	28 30 
2	28 63 
2	28 106 
2	28 107 
2	28 145 
2	28 146 
2	29 30 
2	29 65 
2	29 66 
2	29 146 
2	29 147 
2	29 175 
2	30 63 
2	30 66 
2	30 146 
2	31 33 
2	31 154 
2	31 186 
2	31 187 
2	32 34 
2	32 117 
2	32 136 
2	32 195 
2	33 34 
2	33 187 
2	33 196 
2	34 117 
2	34 195 
2	34 196 
2	35 36 
2	37 38 
2	37 62 
2	37 169 
2	37 173 
2	37 220 
2	37 225 
2	38 58 
2	38 62 
2	38 173 
2	38 211 
2	39 40 
2	39 116 
2	39 200 
2	39 202 
2	40 116 
2	40 202 
2	41 43 
2	41 44 
2	41 49 
2	41 52 
2	41 54 
2	41 108 
2	42 43 
2	42 45 
2	42 74 
2	42 77 
2	43 44 
2	43 45 
2	43 74 
2	43 107 
2	43 108 
2	43 160 
2	44 45 
2	44 46 
2	44 47 
2	44 49 
2	45 46 
2	46 47 
2	47 48 
2	47 49 
2	47 50 
2	48 50 
2	49 50 
2	49 51 
2	49 52 
2	50 51 
2	51 52 
2	51 53 
2	51 55 
2	52 54 
2	52 55 
2	52 87 
2	52 180 
2	53 55 
2	53 56 
2	54 85 
2	54 87 
2	54 108 
2	55 56 
2	55 180 
2	56 99 
2	56 180 
2	57 59 
2	57 60 
2	57 69 
2	57 189 
2	57 217 
2	58 59 
2	58 60 
2	58 61 
2	58 62 
2	58 188 
2	58 209 
2	58 211 
2	59 60 
2	59 62 
2	59 217 
2	59 225 
2	60 61 
2	60 186 
2	60 189 
2	61 186 
2	61 188 
2	62 225 
2	63 66 
2	63 85 
2	63 107 
2	63 108 
2	64 67 
2	64 174 
2	64 176 
2	64 213 
2	64 214 
2	64 215 
2	65 66 
2	65 67 
2	65 84 
2	65 175 
2	66 84 
2	66 85 
2	67 165 
2	67 174 
2	67 175 
2	67 215 
2	68 69 
2	68 70 
2	68 192 
2	68 194 
2	68 196 
2	69 70 
2	69 189 
2	69 192 
2	69 216 
2	69 217 
2	70 193 
2	70 194 
2	70 216 
2	70 219 
2	71 72 
2	71 89 
2	71 91 
2	71 92 
2	71 149 
2	71 150 
2	71 151 
2	72 73 
2	72 89 
2	72 150 
2	72 170 
2	72 172 
2	73 171 
2	73 172 
2	74 77 
2	74 78 
2	74 79 
2	74 159 
2	74 160 
2	75 76 
2	75 78 
2	75 79 
2	76 78 
2	76 157 
2	76 162 
2	77 79 
2	78 79 
2	78 157 
2	78 159 
2	80 81 
2	80 104 
2	80 114 
2	80 115 
2	80 129 
2	80 130 
2	80 135 
2	81 82 
2	81 104 
2	81 105 
2	81 135 
2	81 224 
2	82 98 
2	82 105 
2	82 221 
2	82 224 
2	83 84 
2	83 85 
2	83 86 
2	83 87 
2	83 179 
2	84 85 
2	84 86 
2	84 165 
2	85 87 
2	85 108 
2	86 165 
2	86 168 
2	86 181 
2	87 180 
2	88 89 
2	88 90 
2	88 91 
2	89 91 
2	90 91 
2	90 95 
2	91 92 
2	92 93 
2	92 94 
2	92 95 
2	92 151 
2	93 94 
2	93 95 
2	94 151 
2	94 153 
2	96 97 
2	96 99 
2	96 169 
2	96 220 
2	97 98 
2	97 220 
2	97 226 
2	98 105 
2	98 226 
2	99 100 
2	99 169 
2	99 171 
2	100 171 
2	101 102 
2	101 103 
2	101 207 
2	102 103 
2	102 205 
2	102 207 
2	104 105 
2	104 111 
2	104 115 
2	104 139 
2	104 144 
2	105 144 
2	105 164 
2	106 107 
2	106 145 
2	106 157 
2	106 159 
2	106 160 
2	107 108 
2	107 160 
2	109 110 
2	109 111 
2	109 112 
2	109 125 
2	110 111 
2	110 125 
2	110 127 
2	110 139 
2	110 142 
2	111 112 
2	111 115 
2	111 139 
2	112 114 
2	112 115 
2	113 114 
2	113 129 
2	113 134 
2	113 199 
2	114 115 
2	114 129 
2	116 117 
2	116 136 
2	116 200 
2	117 136 
2	118 121 
2	118 123 
2	118 177 
2	118 206 
2	118 213 
2	119 120 
2	119 121 
2	119 122 
2	119 208 
2	120 121 
2	120 122 
2	120 123 
2	120 124 
2	120 126 
2	121 206 
2	121 208 
2	122 126 
2	123 124 
2	123 212 
2	123 213 
2	124 126 
2	124 127 
2	124 140 
2	124 212 
2	125 126 
2	125 127 
2	126 127 
2	127 140 
2	127 142 
2	128 131 
2	128 132 
2	128 133 
2	128 190 
2	128 193 
2	128 219 
2	128 222 
2	129 130 
2	129 134 
2	130 131 
2	130 132 
2	130 134 
2	130 135 
2	131 132 
2	131 135 
2	131 222 
2	132 133 
2	132 134 
2	133 134 
2	133 138 
2	133 190 
2	133 197 
2	133 204 
2	134 197 
2	134 199 
2	135 222 
2	135 224 
2	136 137 
2	136 191 
2	136 195 
2	136 200 
2	137 138 
2	137 190 
2	137 191 
2	137 200 
2	137 201 
2	138 190 
2	138 201 
2	138 204 
2	139 142 
2	139 143 
2	139 144 
2	140 141 
2	140 142 
2	140 143 
2	140 212 
2	141 143 
2	141 163 
2	141 167 
2	141 212 
2	141 214 
2	142 143 
2	143 144 
2	143 163 
2	144 163 
2	144 164 
2	145 146 
2	145 157 
2	145 158 
2	145 162 
2	146 147 
2	146 158 
2	146 161 
2	146 182 
2	147 175 
2	147 178 
2	147 182 
2	147 184 
2	148 149 
2	148 151 
2	148 155 
2	148 209 
2	148 210 
2	149 150 
2	149 151 
2	149 209 
2	150 170 
2	151 153 
2	151 155 
2	152 154 
2	152 156 
2	152 186 
2	152 188 
2	152 210 
2	153 155 
2	154 186 
2	155 156 
2	155 210 
2	156 210 
2	157 159 
2	157 162 
2	158 161 
2	158 162 
2	159 160 
2	161 182 
2	163 164 
2	163 166 
2	163 167 
2	163 168 
2	164 166 
2	165 167 
2	165 168 
2	165 215 
2	166 168 
2	166 181 
2	167 168 
2	167 214 
2	167 215 
2	168 181 
2	169 171 
2	169 173 
2	169 220 
2	170 172 
2	171 172 
2	171 173 
2	174 175 
2	174 176 
2	174 178 
2	175 178 
2	176 177 
2	176 178 
2	176 183 
2	176 185 
2	176 213 
2	177 185 
2	177 206 
2	177 213 
2	178 183 
2	178 184 
2	179 180 
2	179 181 
2	182 184 
2	183 184 
2	183 185 
2	185 205 
2	185 206 
2	186 187 
2	186 188 
2	186 189 
2	187 189 
2	187 196 
2	188 209 
2	188 210 
2	189 192 
2	189 196 
2	190 191 
2	190 193 
2	190 194 
2	191 194 
2	191 195 
2	192 196 
2	193 194 
2	193 219 
2	194 195 
2	194 196 
2	195 196 
2	197 198 
2	197 199 
2	197 204 
2	198 199 
2	198 203 
2	198 204 
2	200 201 
2	200 202 
2	201 202 
2	201 203 
2	201 204 
2	202 203 
2	203 204 
2	205 206 
2	205 207 
2	206 207 
2	206 208 
2	207 208 
2	209 210 
2	209 211 
2	212 213 
2	212 214 
2	213 214 
2	214 215 
2	216 217 
2	216 218 
2	216 219 
2	216 223 
2	217 223 
2	217 225 
2	218 219 
2	218 221 
2	218 222 
2	218 223 
2	218 224 
2	219 222 
2	220 225 
2	220 226 
2	221 223 
2	221 224 
2	221 226 
2	222 224 
2	223 225 
2	223 226 
2	225 226 
0	

2
 0.252912 1
2
 0.990492 1
2
 0.861533 1
2
 0.26136 1
2
 0.373761 1
2
 0.166231 1
2
 0.652174 1
2
 0.239076 1
2
 1 0.972618
2
 0.532788 1
2
 1 0.492813
2
 1 0.463185
2
 1 0.539824
2
 1 0.467185
2
 1 0.535885
2
 1 0.323623
2
 1 0.495653
2
 1 0.731864
2
 1 0.69244
2
 1 0.693248
2
 0.37719 1
2
 0.526247 1
2
 1 0.571292
2
 0.105836 1
2
 0.157943 1
2
 0.067548 1
2
 0.141754 1
2
 0.126542 1
2
 1 0.976589
2
 0.752806 1
2
 0.83 1
2
 0.239469 1
2
 0.162937 1
2
 0.125223 1
2
 0.224193 1
2
 0.238561 1
2
 0.299242 1
2
 0.715455 1
2
 0.440088 1
2
 0.388085 1
2
 0.91807 1
2
 1 0.966564
2
 0.673488 1
2
 0.632866 1
2
 1 0.532963
2
 1 0.575118
2
 1 0.393195
2
 1 0.342732
2
 1 0.376958
2
 1 0.590558
2
 0.904348 1
2
 1 0.54453
2
 0.801129 1
2
 0.434517 1
2
 0.210433 1
2
 0.265374 1
2
 0.0508563 1
2
 1 0.991155
2
 1 0.246078
2
 1 0.957034
2
 1 0.235433
2
 1 0.669856
2
 1 0.311806
2
 0.128246 1
2
 0.83149 1
2
 0.536187 1
2
 0.326377 1
2
 0.970282 1
2
 0.459039 1
2
 0.362851 1
2
 0.544607 1
2
 0.701395 1
2
 0.751048 1
2
 0.396972 1
2
 1 0.819779
2
 1 0.241853
2
 0.966133 1
2
 1 0.948585
2
 1 0.877933
2
 1 0.219745
2
 0.355376 1
2
 0.176087 1
2
 0.172769 1
2
 0.292105 1
2
 0.113607 1
2
 0.137225 1
2
 0.1206 1
2
 0.497897 1
2
 1 0.72049
2
 1 0.266641
2
 1 0.724859
2
 1 0.326922
2
 1 0.770312
2
 1 0.305742
2
 0.803012 1
2
 1 0.612242
2
 0.228714 1
2
 0.109143 1
2
 0.260713 1
2
 1 0.644641
2
 0.552725 1
2
 1 0.520882
2
 0.488313 1
2
 0.382163 1
2
 0.0825546 1
2
 0.0637088 1
2
 0.802094 1
2
 0.972429 1
2
 0.331522 1
2
 1 0.0758867
2
 1 0.132898
2
 1 0.16216
2
 1 0.0895404
2
 1 0.353007
2
 1 0.49363
2
 0.931029 1
2
 1 0.823788
2
 0.623243 1
2
 1 0.217127
2
 1 0.0864215
2
 1 0.13496
2
 1 0.111985
2
 1 0.0821645
2
 1 0.146604
2
 1 0.0978815
2
 1 0.0764264
2
 1 0.083732
2
 1 0.182044
2
 1 0.495569
2
 1 0.697768
2
 1 0.620152
2
 1 0.458131
2
 1 0.199041
2
 1 0.227828
2
 1 0.688859
2
 0.329291 1
2
 0.88894 1
2
 1 0.721191
2
 1 0.859547
2
 0.225162 1
2
 0.466057 1
2
 0.170599 1
2
 0.330318 1
2
 0.422585 1
2
 0.100072 1
2
 0.101226 1
2
 0.0795667 1
2
 1 0.340026
2
 1 0.354539
2
 1 0.396274
2
 1 0.112985
2
 1 0.831851
2
 0.41705 1
2
 0.413349 1
2
 1 0.911464
2
 0.257599 1
2
 0.466872 1
2
 0.967278 1
2
 1 0.486641
2
 0.876682 1
2
 1 0.417195
2
 1 0.531177
2
 1 0.935721
2
 0.155307 1
2
 0.103959 1
2
 0.166434 1
2
 0.180777 1
2
 0.202692 1
2
 0.0982927 1
2
 1 0.0939665
2
 1 0.24436
2
 1 0.837207
2
 1 0.270678
2
 1 0.416075
2
 0.88664 1
2
 1 0.817573
2
 0.0556387 1
2
 0.133664 1
2
 0.621522 1
2
 0.479752 1
2
 0.427318 1
2
 0.0943264 1
2
 0.114194 1
2
 0.138847 1
2
 0.135651 1
2
 0.151527 1
2
 0.790147 1
2
 1 0.556038
2
 1 0.609188
2
 0.611525 1
2
 1 0.234493
2
 1 0.464697
2
 0.30564 1
2
 0.403452 1
2
 1 0.324084
2
 0.974444 1
2
 1 0.711579
2
 1 0.256226
2
 1 0.185717
2
 1 0.232431
2
 1 0.790635
2
 1 0.324734
2
 1 0.182333
2
 1 0.134918
2
 1 0.347649
2
 1 0.979541
2
 1 0.228889
2
 1 0.171499
2
 1 0.106613
2
 1 0.79633
2
 1 0.752239
2
 1 0.417724
2
 0.35909 1
2
 0.129632 1
2
 0.266071 1
2
 0.180239 1
2
 0.362254 1
2
 0.355901 1
2
 1 0.401166
2
 1 0.436903
2
 1 0.876775
2
 0.992191 1
2
 1 0.856607
2
 1 0.335151
2
 0.487281 1
2
 1 0.893928
2
 0.500366 1
4
 0.949108 0.289737 0.289737 1
4
 0.95225 0.296897 0.296897 1
4
 0.950257 0.29309 0.29309 1
4
 0.95743 0.300592 0.300592 1
4
 0.955534 0.297013 0.297013 1
4
 0.953779 0.294262 0.294262 1
4
 0.946055 0.286317 0.286317 1
4
 0.946897 0.283773 0.283773 1
4
 0.944209 0.279644 0.279644 1
4
 0.949562 0.287462 0.287462 1
4
 1 0.29309 0.29309 0.990377
4
 1 0.291495 0.291495 0.995157
4
 1 0.294946 0.294946 0.986707
4
 1 0.298963 0.298963 0.986078
4
 1 0.297268 0.297268 0.985845
4
 1 0.294719 0.294719 0.992444
4
 1 0.288583 0.288583 0.991479
4
 1 0.285818 0.285818 0.989969
4
 1 0.288239 0.288239 0.988421
4
 1 0.28402 0.28402 0.995875
4
 1 0.28649 0.28649 0.994894
4
 1 0.289176 0.289176 0.995642
4
 1 0.29041 0.29041 0.987804
4
 1 0.292599 0.292599 0.987188
4
 1 0.288649 0.288649 0.994273
4
 1 0.316366 0.316366 0.969142
4
 1 0.317471 0.317471 0.964944
4
 1 0.320611 0.320611 0.960511
4
 1 0.323459 0.323459 0.958955
4
 1 0.3225 0.3225 0.962276
4
 1 0.320995 0.320995 0.965639
4
 1 0.317568 0.317568 0.970017
4
 1 0.314443 0.314443 0.968968
4
 1 0.311872 0.311872 0.971048
4
 1 0.31454 0.31454 0.974062
4
 1 0.312154 0.312154 0.977662
4
 1 0.309176 0.309176 0.979547
4
 1 0.310937 0.310937 0.975406
4
 1 0.312961 0.312961 0.966841
4
 1 0.318663 0.318663 0.960339
4
 1 0.315552 0.315552 0.961633
4
 1 0.312971 0.312971 0.963697
4
 1 0.310296 0.310296 0.964834
4
 1 0.308287 0.308287 0.969038
4
 1 0.307053 0.307053 0.97194
4
 1 0.309471 0.309471 0.973265
4
 1 0.318673 0.318673 0.957216
4
 1 0.324673 0.324673 0.954379
4
 1 0.312864 0.312864 0.959637
4
 1 0.308182 0.308182 0.964955
4
 1 0.307768 0.307768 0.961608
4
 1 0.30402 0.30402 0.969711
4
 1 0.304961 0.304961 0.972062
4
 1 0.303612 0.303612 0.966347
4
 1 0.298924 0.298924 0.973744
4
 1 0.302804 0.302804 0.972615
4
 1 0.299612 0.299612 0.970868
4
 1 0.30263 0.30263 0.963637
4
 1 0.301341 0.301341 0.966951
4
 1 0.336478 0.336478 0.995576
4
 1 0.335316 0.335316 0.994431
4
 1 0.339854 0.339854 0.986963
4
 1 0.336325 0.336325 0.989987
4
 1 0.333764 0.333764 0.999118
4
 0.996459 0.330724 0.330724 1
4
 0.993355 0.329524 0.329524 1
4
 0.997607 0.329962 0.329962 1
4
 1 0.333613 0.333613 0.993509
4
 1 0.330604 0.330604 0.999002
4
 0.990105 0.325482 0.325482 1
4
 0.988421 0.322355 0.322355 1
4
 0.991152 0.32304 0.32304 1
4
 0.996575 0.32763 0.32763 1
4
 0.981342 0.31846 0.31846 1
4
 0.985342 0.321185 0.321185 1
4
 0.9816 0.320575 0.320575 1
4
 0.979674 0.315401 0.315401 1
4
 0.971307 0.309854 0.309854 1
4
 0.975953 0.314801 0.314801 1
4
 0.977034 0.311643 0.311643 1
4
 0.971778 0.308349 0.308349 1
4
 0.986384 0.318776 0.318776 1
4
 0.981016 0.31431 0.31431 1
4
 1 0.305664 0.305664 0.994337
4
 1 0.308436 0.308436 0.992096
4
 1 0.309662 0.309662 0.985727
4
 1 0.30462 0.30462 0.992179
4
 1 0.306708 0.306708 0.987628
4
 1 0.31195 0.31195 0.986936
4
 0.997771 0.302773 0.302773 1
4
 1 0.305734 0.305734 0.99714
4
 0.995498 0.299758 0.299758 1
4
 1 0.301951 0.301951 0.997223
4
 0.998353 0.299768 0.299768 1
4
 1 0.306202 0.306202 0.999975
4
 0.992675 0.299365 0.299365 1
4
 0.989916 0.299112 0.299112 1
4
 0.99578 0.304492 0.304492 1
4
 1 0.310531 0.310531 0.993999
4
 1 0.312021 0.312021 0.989718
4
 1 0.308085 0.308085 0.999134
4
 0.993255 0.296395 0.296395 1
4
 0.98881 0.293299 0.293299 1
4
 0.984509 0.292264 0.292264 1
4
 0.987661 0.296134 0.296134 1
4
 1 0.334275 0.334275 0.978806
4
 1 0.333851 0.333851 0.975599
4
 1 0.339529 0.339529 0.970379
4
 1 0.337052 0.337052 0.970368
4
 1 0.339632 0.339632 0.973302
4
 1 0.336768 0.336768 0.978007
4
 1 0.329494 0.329494 0.988149
4
 1 0.324393 0.324393 0.994505
4
 1 0.326726 0.326726 0.989697
4
 1 0.331952 0.331952 0.987342
4
 1 0.327653 0.327653 0.994757
4
 1 0.324781 0.324781 0.997582
4
 1 0.331442 0.331442 0.98015
4
 1 0.329076 0.329076 0.984912
4
 1 0.334339 0.334339 0.982569
4
 0.966298 0.252624 0.252624 1
4
 0.975193 0.258015 0.258015 1
4
 0.975261 0.259698 0.259698 1
4
 0.96993 0.256387 0.256387 1
4
 0.949093 0.242544 0.242544 1
4
 0.942753 0.23845 0.23845 1
4
 0.9435 0.240732 0.240732 1
4
 0.948374 0.243897 0.243897 1
4
 0.957192 0.247086 0.247086 1
4
 0.965108 0.253413 0.253413 1
4
 0.960819 0.251204 0.251204 1
4
 0.946542 0.240378 0.240378 1
4
 0.952186 0.245869 0.245869 1
4
 0.95652 0.24858 0.24858 1
4
 0.949187 0.293392 0.293392 1
4
 0.998819 0.288708 0.288708 1
4
 0.994733 0.28576 0.28576 1
4
 1 0.294087 0.294087 0.997998
4
 1 0.292246 0.292246 0.998453
4
 0.99636 0.290514 0.290514 1
4
 0.992902 0.286052 0.286052 1
4
 0.995474 0.282466 0.282466 1
4
 0.995463 0.284538 0.284538 1
4
 1 0.290783 0.290783 0.997721
4
 1 0.287078 0.287078 0.999072
4
 0.924302 0.227896 0.227896 1
4
 0.930257 0.231271 0.231271 1
4
 0.930374 0.232888 0.232888 1
4
 0.925905 0.230508 0.230508 1
4
 0.926065 0.228458 0.228458 1
4
 0.921733 0.227704 0.227704 1
4
 1 0.335284 0.335284 0.960467
4
 1 0.333556 0.333556 0.959392
4
 1 0.329957 0.329957 0.962386
4
 1 0.327809 0.327809 0.967567
4
 1 0.329164 0.329164 0.9682
4
 1 0.331828 0.331828 0.965753
4
 1 0.342268 0.342268 0.952897
4
 1 0.343782 0.343782 0.947877
4
 1 0.347367 0.347367 0.949033
4
 1 0.348425 0.348425 0.94594
4
 1 0.337132 0.337132 0.957015
4
 1 0.340378 0.340378 0.95304
4
 1 0.343927 0.343927 0.954202
4
 1 0.338139 0.338139 0.96228
4
 1 0.335386 0.335386 0.96336
4
 1 0.341458 0.341458 0.957674
4
 1 0.338623 0.338623 0.951973
4
 1 0.336391 0.336391 0.952645
4
 1 0.333838 0.333838 0.954029
4
 1 0.331775 0.331775 0.958927
4
 1 0.33963 0.33963 0.948688
4
 1 0.33483 0.33483 0.950737
4
 1 0.329915 0.329915 0.952476
4
 1 0.330236 0.330236 0.957007
4
 1 0.328937 0.328937 0.955775
4
 1 0.326586 0.326586 0.956133
4
 1 0.326904 0.326904 0.960681
4
 1 0.325379 0.325379 0.964038
4
 1 0.326059 0.326059 0.967099
4
 1 0.324099 0.324099 0.962797
4
 1 0.32326 0.32326 0.969229
4
 1 0.319142 0.319142 0.970542
4
 1 0.320593 0.320593 0.971121
4
 1 0.325275 0.325275 0.972941
4
 1 0.321263 0.321263 0.974204
4
 1 0.322461 0.322461 0.977077
4
 1 0.319728 0.319728 0.978419
4
 1 0.31717 0.31717 0.975524
4
 1 0.31334 0.31334 0.978544
4
 1 0.325508 0.325508 0.978001
4
 1 0.323794 0.323794 0.977716
4
 1 0.329264 0.329264 0.971116
4
 1 0.314764 0.314764 0.979129
4
 1 0.31709 0.31709 0.980329
4
 1 0.307997 0.307997 0.984054
4
 1 0.313261 0.313261 0.983364
4
 0.979365 0.270886 0.270886 1
4
 0.97748 0.267785 0.267785 1
4
 0.973337 0.267088 0.267088 1
4
 0.973584 0.264498 0.264498 1
4
 0.976855 0.270343 0.270343 1
4
 0.987395 0.276022 0.276022 1
4
 0.985495 0.272862 0.272862 1
4
 0.988249 0.273919 0.273919 1
4
 0.991402 0.279582 0.279582 1
4
 0.990708 0.274691 0.274691 1
4
 0.995863 0.279629 0.279629 1
4
 0.996845 0.282339 0.282339 1
4
 0.981502 0.271365 0.271365 1
4
 0.987385 0.278047 0.278047 1
4
 0.980874 0.273957 0.273957 1
4
 0.985567 0.278332 0.278332 1
4
 0.98235 0.269297 0.269297 1
4
 0.979514 0.266057 0.266057 1
4
 0.975708 0.264966 0.264966 1
4
 0.982251 0.267087 0.267087 1
4
 0.987546 0.271102 0.271102 1
4
 0.989566 0.281921 0.281921 1
4
 1 0.328658 0.328658 0.981685
4
 1 0.327694 0.327694 0.979688
4
 1 0.334196 0.334196 0.9717
4
 1 0.331475 0.331475 0.972792
4
 0.989351 0.31122 0.31122 1
4
 0.985777 0.30973 0.30973 1
4
 0.982051 0.307816 0.307816 1
4
 0.978288 0.302631 0.302631 1
4
 0.980581 0.302674 0.302674 1
4
 0.985266 0.306581 0.306581 1
4
 1 0.323982 0.323982 0.991247
4
 0.999292 0.319122 0.319122 1
4
 1 0.319975 0.319975 0.995772
4
 1 0.322053 0.322053 0.999144
4
 1 0.322276 0.322276 0.990958
4
 1 0.325354 0.325354 0.984448
4
 0.993729 0.312468 0.312468 1
4
 0.99106 0.313838 0.313838 1
4
 0.99621 0.318518 0.318518 1
4
 0.990546 0.310648 0.310648 1
4
 0.967527 0.262582 0.262582 1
4
 0.964266 0.260689 0.260689 1
4
 0.966147 0.259879 0.259879 1
4
 0.960602 0.256744 0.256744 1
4
 0.961942 0.255529 0.255529 1
4
 0.968053 0.264941 0.264941 1
4
 0.971573 0.264277 0.264277 1
4
 0.969941 0.264118 0.264118 1
4
 0.972067 0.26895 0.26895 1
4
 0.974838 0.270117 0.270117 1
4
 0.960473 0.260283 0.260283 1
4
 0.961124 0.25905 0.25905 1
4
 0.96879 0.267011 0.267011 1
4
 0.963734 0.263761 0.263761 1
4
 1 0.292594 0.292594 0.978399
4
 1 0.293268 0.293268 0.975508
4
 1 0.290978 0.290978 0.976361
4
 1 0.287848 0.287848 0.978408
4
 1 0.28721 0.28721 0.983693
4
 1 0.289642 0.289642 0.982155
4
 1 0.285581 0.285581 0.983461
4
 1 0.299849 0.299849 0.976106
4
 1 0.296688 0.296688 0.974352
4
 1 0.29302 0.29302 0.980991
4
 1 0.295228 0.295228 0.980379
4
 1 0.297552 0.297552 0.979523
4
 1 0.303133 0.303133 0.978617
4
 1 0.301414 0.301414 0.978387
4
 1 0.350114 0.350114 0.947236
4
 1 0.351354 0.351354 0.950634
4
 1 0.353158 0.353158 0.946303
4
 1 0.348003 0.348003 0.954598
4
 1 0.346544 0.346544 0.953791
4
 1 0.35997 0.35997 0.946706
4
 1 0.358168 0.358168 0.946012
4
 1 0.360007 0.360007 0.941702
4
 1 0.355453 0.355453 0.951633
4
 1 0.353283 0.353283 0.956702
4
 1 0.354388 0.354388 0.958043
4
 1 0.354234 0.354234 0.943219
4
 1 0.355489 0.355489 0.946602
4
 1 0.351514 0.351514 0.956001
4
 1 0.3503 0.3503 0.9549
4
 0.95391 0.266775 0.266775 1
4
 0.951886 0.266428 0.266428 1
4
 0.93983 0.257392 0.257392 1
4
 0.945321 0.262234 0.262234 1
4
 0.941904 0.257518 0.257518 1
4
 0.94661 0.26054 0.26054 1
4
 0.951262 0.263811 0.263811 1
4
 0.9682 0.276501 0.276501 1
4
 0.959375 0.271542 0.271542 1
4
 0.968074 0.277433 0.277433 1
4
 0.958746 0.268874 0.268874 1
4
 0.963482 0.271903 0.271903 1
4
 0.981102 0.285679 0.285679 1
4
 0.974906 0.282132 0.282132 1
4
 0.975372 0.279916 0.279916 1
4
 0.970282 0.276508 0.276508 1
4
 1 0.317486 0.317486 0.993401
4
 1 0.320518 0.320518 0.986875
4
 1 0.314446 0.314446 0.996334
4
 1 0.318831 0.318831 0.986588
4
 1 0.314619 0.314619 0.992216
4
 1 0.32133 0.32133 0.988942
4
 1 0.315243 0.315243 0.99842
4
 0.998655 0.314633 0.314633 1
4
 1 0.322691 0.322691 0.982159
4
 1 0.328142 0.328142 0.97553
4
 0.995716 0.310703 0.310703 1
4
 0.9938 0.307147 0.307147 1
4
 0.997626 0.3092 0.3092 1
4
 1 0.318272 0.318272 0.983221
4
 1 0.298643 0.298643 0.968145
4
 1 0.297335 0.297335 0.965779
4
 1 0.296311 0.296311 0.968991
4
 1 0.295049 0.295049 0.972323
4
 1 0.293756 0.293756 0.969947
4
 1 0.292155 0.292155 0.968113
4
 1 0.289596 0.289596 0.975213
4
 1 0.285343 0.285343 0.974815
4
 1 0.283748 0.283748 0.979142
4
 1 0.288017 0.288017 0.973369
4
 1 0.284225 0.284225 0.982305
4
 1 0.282621 0.282621 0.976694
4
 1 0.286873 0.286873 0.970936
4
 1 0.281513 0.281513 0.984199
4
 1 0.279314 0.279314 0.985059
4
 1 0.299237 0.299237 0.999475
4
 1 0.302982 0.302982 0.990494
4
 1 0.299312 0.299312 0.994576
4
 0.999788 0.296693 0.296693 1
4
 0.991646 0.293309 0.293309 1
4
 0.99537 0.293731 0.293731 1
4
 0.991027 0.290934 0.290934 1
4
 0.980974 0.286642 0.286642 1
4
 0.986592 0.287895 0.287895 1
4
 1 0.306796 0.306796 0.981783
4
 1 0.301364 0.301364 0.990014
4
 1 0.30379 0.30379 0.984111
4
 1 0.305521 0.305521 0.979952
4
 0.964242 0.305825 0.305825 1
4
 0.968855 0.310709 0.310709 1
4
 0.959651 0.301019 0.301019 1
4
 0.971562 0.311911 0.311911 1
4
 0.967405 0.305518 0.305518 1
4
 0.962332 0.302184 0.302184 1
4
 0.96602 0.277072 0.277072 1
4
 0.951829 0.269069 0.269069 1
4
 0.950737 0.266919 0.266919 1
4
 0.9569 0.272164 0.272164 1
4
 0.962399 0.27584 0.27584 1
4
 0.971126 0.281824 0.281824 1
4
 0.976707 0.285631 0.285631 1
4
 1 0.33988 0.33988 0.966501
4
 1 0.342482 0.342482 0.969423
4
 1 0.345855 0.345855 0.963799
4
 1 0.344661 0.344661 0.96269
4
 1 0.343216 0.343216 0.961875
4
 1 0.334654 0.334654 0.967576
4
 1 0.340712 0.340712 0.961865
4
 0.943748 0.267206 0.267206 1
4
 0.942303 0.265008 0.265008 1
4
 0.936987 0.260477 0.260477 1
4
 0.939327 0.265521 0.265521 1
4
 0.947801 0.26918 0.26918 1
4
 0.944808 0.269702 0.269702 1
4
 0.950766 0.27379 0.27379 1
4
 0.952851 0.272277 0.272277 1
4
 0.954236 0.274757 0.274757 1
4
 0.941011 0.262402 0.262402 1
4
 0.945264 0.264834 0.264834 1
4
 0.951391 0.270037 0.270037 1
4
 0.934472 0.255499 0.255499 1
4
 0.939932 0.260306 0.260306 1
4
 0.931523 0.250004 0.250004 1
4
 0.933579 0.250127 0.250127 1
4
 0.933694 0.248536 0.248536 1
4
 0.929741 0.245342 0.245342 1
4
 0.938696 0.257866 0.257866 1
4
 0.935303 0.253229 0.253229 1
4
 0.936116 0.23407 0.23407 1
4
 0.936859 0.23631 0.23631 1
4
 0.932149 0.233461 0.233461 1
4
 0.940964 0.238583 0.238583 1
4
 0.959771 0.292106 0.292106 1
4
 0.961535 0.290929 0.290929 1
4
 0.96775 0.297922 0.297922 1
4
 0.964176 0.296735 0.296735 1
4
 0.967978 0.296302 0.296302 1
4
 0.95037 0.283555 0.283555 1
4
 0.952493 0.287139 0.287139 1
4
 0.946193 0.280366 0.280366 1
4
 0.951557 0.288204 0.288204 1
4
 0.953982 0.28618 0.28618 1
4
 0.947672 0.279429 0.279429 1
4
 0.955735 0.285026 0.285026 1
4
 0.953581 0.281828 0.281828 1
4
 0.947896 0.27791 0.27791 1
4
 0.960502 0.294389 0.294389 1
4
 0.955174 0.290872 0.290872 1
4
 0.94373 0.274784 0.274784 1
4
 0.957468 0.284239 0.284239 1
4
 0.963217 0.289117 0.289117 1
4
 0.966061 0.292774 0.292774 1
4
 0.949614 0.277143 0.277143 1
4
 0.953793 0.278609 0.278609 1
4
 0.959012 0.282567 0.282567 1
4
 0.961047 0.285873 0.285873 1
4
 0.942165 0.270633 0.270633 1
4
 0.946311 0.272064 0.272064 1
4
 0.948106 0.274736 0.274736 1
4
 0.957489 0.280113 0.280113 1
4
 0.955754 0.277165 0.277165 1
4
 0.952296 0.258811 0.258811 1
4
 0.947898 0.255425 0.255425 1
4
 0.94542 0.252177 0.252177 1
4
 0.949634 0.253628 0.253628 1
4
 0.953487 0.256899 0.256899 1
4
 0.956725 0.260331 0.260331 1
4
 0.9561 0.261237 0.261237 1
4
 0.94205 0.256326 0.256326 1
4
 0.937483 0.251742 0.251742 1
4
 0.950265 0.260371 0.260371 1
4
 0.945877 0.256964 0.256964 1
4
 0.942166 0.254695 0.254695 1
4
 0.95141 0.26259 0.26259 1
4
 0.949382 0.257991 0.257991 1
4
 0.954936 0.26364 0.26364 1
4
 0.957597 0.263863 0.263863 1
4
 0.942528 0.251378 0.251378 1
4
 0.941291 0.252368 0.252368 1
4
 0.93883 0.249159 0.249159 1
4
 0.940104 0.246803 0.246803 1
4
 0.944253 0.249611 0.249611 1
4
 0.936113 0.24542 0.24542 1
4
 0.93592 0.243914 0.243914 1
4
 0.934885 0.246386 0.246386 1
4
 0.933629 0.246926 0.246926 1
4
 0.95875 0.266111 0.266111 1
4
 0.960808 0.268881 0.268881 1
4
 0.940914 0.241676 0.241676 1
4
 0.945014 0.244311 0.244311 1
4
 0.946575 0.244033 0.244033 1
4
 0.936977 0.237962 0.237962 1
4
 0.940131 0.243956 0.243956 1
4
 0.944281 0.246731 0.246731 1
4
 0.944215 0.245132 0.245132 1
4
 0.936184 0.238762 0.238762 1
4
 0.935806 0.239732 0.239732 1
4
 0.944294 0.248224 0.248224 1
4
 0.935819 0.241184 0.241184 1
4
 0.93596 0.242559 0.242559 1
4
 0.95785 0.275632 0.275632 1
4
 0.961916 0.278379 0.278379 1
4
 0.961957 0.276833 0.276833 1
4
 0.966683 0.287024 0.287024 1
4
 0.960984 0.281103 0.281103 1
4
 0.965063 0.283904 0.283904 1
4
 0.964771 0.287417 0.287417 1
4
 0.969027 0.286832 0.286832 1
4
 0.973468 0.2905 0.2905 1
4
 0.975965 0.294105 0.294105 1
4
 0.968734 0.290382 0.290382 1
4
 0.973871 0.294097 0.294097 1
4
 0.963314 0.280915 0.280915 1
4
 0.967444 0.282139 0.282139 1
4
 0.971837 0.287342 0.287342 1
4
 0.971878 0.285746 0.285746 1
4
 0.973046 0.284361 0.284361 1
4
 1 0.339697 0.339697 0.977043
4
 1 0.34596 0.34596 0.966702
4
 1 0.34445 0.34445 0.973003
4
 1 0.347043 0.347043 0.968057
4
 1 0.332471 0.332471 0.989139
4
 1 0.341546 0.341546 0.977706
4
 1 0.339246 0.339246 0.982401
4
 1 0.335723 0.335723 0.985411
4
 1 0.325289 0.325289 0.999397
4
 0.996461 0.322986 0.322986 1
4
 1 0.331375 0.331375 0.992812
4
 1 0.328387 0.328387 0.9983
4
 1 0.282313 0.282313 0.991446
4
 1 0.280712 0.280712 0.991212
4
 1 0.277035 0.277035 0.996041
4
 1 0.280538 0.280538 0.997361
4
 1 0.277933 0.277933 0.998842
4
 1 0.287627 0.287627 0.9863
4
 1 0.283594 0.283594 0.987612
4
 1 0.283418 0.283418 0.993738
4
 1 0.292249 0.292249 0.984143
4
 1 0.279784 0.279784 0.988242
4
 1 0.278292 0.278292 0.99219
4
 0.983245 0.26303 0.26303 1
4
 0.991172 0.26811 0.26811 1
4
 0.983314 0.264745 0.264745 1
4
 0.988615 0.268725 0.268725 1
4
 0.992285 0.270614 0.270614 1
4
 1 0.276118 0.276118 0.993057
4
 0.979346 0.262164 0.262164 1
4
 0.999051 0.273034 0.273034 1
4
 1 0.275537 0.275537 0.999827
4
 0.996249 0.273152 0.273152 1
4
 1 0.348162 0.348162 0.959988
4
 1 0.350461 0.350461 0.962441
4
 1 0.343992 0.343992 0.978338
4
 1 0.348931 0.348931 0.968713
4
 1 0.345505 0.345505 0.958072
4
 1 0.338127 0.338127 0.986048
4
 0.977464 0.289605 0.289605 1
4
 0.980594 0.29344 0.29344 1
4
 0.978795 0.294627 0.294627 1
4
 0.982619 0.296734 0.296734 1
4
 0.981772 0.292017 0.292017 1
4
 0.987039 0.303895 0.303895 1
4
 0.990895 0.306069 0.306069 1
4
 0.989626 0.307809 0.307809 1
4
 0.98695 0.299205 0.299205 1
4
 0.99075 0.301205 0.301205 1
4
 0.985139 0.300417 0.300417 1
4
 0.9792 0.298276 0.298276 1
4
 0.983877 0.302125 0.302125 1
4
 0.992796 0.304587 0.304587 1
4
 1 0.300111 0.300111 0.988167
4
 1 0.29585 0.29585 0.994547
4
 1 0.295172 0.295172 0.999727
4
 1 0.29677 0.29677 0.98267
4
 1 0.300812 0.300812 0.982044
4
 1 0.298232 0.298232 0.988618
4
 0.992612 0.316992 0.316992 1
4
 0.983748 0.310406 0.310406 1
4
 0.988503 0.314558 0.314558 1
4
 0.99364 0.319248 0.319248 1
4
 0.976045 0.304949 0.304949 1
4
 0.984766 0.312615 0.312615 1
4
 0.984559 0.313923 0.313923 1
4
 0.979201 0.309525 0.309525 1
4
 0.976275 0.303291 0.303291 1
4
 0.975219 0.305974 0.305974 1
4
 0.968487 0.30025 0.30025 1
4
 0.972305 0.299812 0.299812 1
4
 0.989318 0.318122 0.318122 1
4
 0.994731 0.322642 0.322642 1
4
 1 0.314068 0.314068 0.988829
4
 1 0.310106 0.310106 0.998237
4
 1 0.331598 0.331598 0.994538
4
 0.994522 0.323992 0.323992 1
4
 0.983726 0.314978 0.314978 1
4
 0.973109 0.307283 0.307283 1
4
 0.971618 0.304755 0.304755 1
4
 0.97406 0.260509 0.260509 1
4
 0.984694 0.26784 0.26784 1
4
 0.97561 0.262791 0.262791 1
4
 0.970276 0.259441 0.259441 1
4
 0.96443 0.254945 0.254945 1
4
 0.995154 0.276754 0.276754 1
4
 0.993679 0.273778 0.273778 1
4
 0.970187 0.261557 0.261557 1
4
 0.965965 0.257179 0.257179 1
4
 0.948396 0.249421 0.249421 1
4
 0.95231 0.254285 0.254285 1
4
 0.952956 0.25308 0.25308 1
4
 0.95289 0.251441 0.251441 1
4
 0.949895 0.247523 0.247523 1
4
 0.964342 0.257024 0.257024 1
4
 0.956823 0.256344 0.256344 1
4
 0.959422 0.261006 0.261006 1
4
 0.954463 0.251154 0.251154 1
4
 0.958807 0.253923 0.253923 1
4
 0.955794 0.249966 0.249966 1
4
 0.928956 0.240408 0.240408 1
4
 0.930927 0.24322 0.24322 1
4
 0.931987 0.2412 0.2412 1
4
 0.927708 0.240934 0.240934 1
4
 0.924884 0.235972 0.235972 1
4
 0.928764 0.238933 0.238933 1
4
 0.93189 0.236049 0.236049 1
4
 0.927788 0.232691 0.232691 1
4
 0.927414 0.233637 0.233637 1
4
 0.927762 0.235407 0.235407 1
4
 0.931654 0.23836 0.23836 1
4
 0.923678 0.232058 0.232058 1
4
 0.927901 0.23675 0.23675 1
4
 0.966391 0.301534 0.301534 1
4
 0.962799 0.300717 0.300717 1
4
 0.961324 0.298244 0.298244 1
4
 0.959558 0.295481 0.295481 1
4
 0.955991 0.29468 0.29468 1
4
 0.998849 0.2787 0.2787 1
4
 1 0.284085 0.284085 0.998683
4
 0.969672 0.294457 0.294457 1
4
 0.971944 0.2945 0.2945 1
4
 0.974814 0.298225 0.298225 1
4
 0.981766 0.302117 0.302117 1
4
 0.97558 0.272228 0.272228 1
4
 0.971687 0.271678 0.271678 1
4
 0.96773 0.267752 0.267752 1
4
 0.976785 0.275027 0.275027 1
4
 0.97957 0.27622 0.27622 1
4
 0.983041 0.277774 0.277774 1
4
 0.966616 0.268371 0.268371 1
4
 0.973137 0.275461 0.275461 1
4
 0.965985 0.269305 0.269305 1
4
 0.975661 0.275662 0.275662 1
4
 0.968058 0.272108 0.272108 1
4
 0.962051 0.265413 0.265413 1
4
 0.991185 0.286611 0.286611 1
4
 0.990297 0.28831 0.28831 1
4
 0.978243 0.278856 0.278856 1
4
 0.97062 0.275261 0.275261 1
4
 0.980831 0.282087 0.282087 1
4
 0.963486 0.269109 0.269109 1
4
 0.984256 0.28063 0.28063 1
4
 0.983375 0.282293 0.282293 1
4
 0.98686 0.283882 0.283882 1
1
 1

